Cars = 1..200;
Options = 1..5;
Classes = 1..27;
sequenceMinCapacity = [0, 0, 0, 0, 0];
sequenceMaxCapacity = [1, 2, 1, 2, 1];
sequenceSize = [2, 3, 3, 5, 5];
numOrdered = [1, 2, 1, 33, 1, 1, 1, 2, 9, 1, 6, 24, 1, 51, 1, 6, 7, 2, 8, 14, 4, 1, 4, 2, 2, 1, 14];
classHasOption = [| true,  true,  true,  true, false
                  | true, false, false, false,  true
                  | true, false,  true, false,  true
                  |false, false, false,  true, false
                  | true,  true,  true, false,  true
                  |false,  true, false,  true,  true
                  | true, false,  true,  true,  true
                  | true,  true, false,  true, false
                  |false,  true, false,  true, false
                  |false, false,  true, false,  true
                  | true, false, false,  true, false
                  |false, false,  true, false, false
                  | true,  true,  true, false, false
                  |false,  true, false, false, false
                  |false, false,  true,  true, false
                  | true, false,  true, false, false
                  |false,  true,  true, false, false
                  | true,  true, false, false,  true
                  |false, false, false, false,  true
                  | true, false, false, false, false
                  | true, false, false,  true,  true
                  |false,  true, false, false,  true
                  |false,  true,  true,  true, false
                  |false, false, false,  true,  true
                  |false,  true,  true, false, false
                  | true, false,  true, false, false
                  | true,  true, false, false, false|];
optionOrdering = [3, 4, 5, 1, 2];
